133830
14,47,61,103,4,15,75,35,63,32,7,18,70,37,49,39,84,53,33,82,72,51,100,99,68,50,26,34,83,57,80,89,93,12,23,92,9,19,81,42,98,106,8,97,55,29,30,5,52,65,31,13,88,69,6,40,56,20,16,64,90,17,21,77,46,86,22,62,25,45,2,73,48,85,36,71,54,95,67,41,11,104,38,105,101,3,94,78,96,60,91,79,43,1,87,44,66,59,10,27,28,58,76,24,102,74
